NAME : sko-42.-381.tour
COMMENT : Length = -381
COMMENT : Found by LKH [Keld Helsgaun] Sun Apr 13 17:05:01 2025
TYPE : TOUR
DIMENSION : 42
TOUR_SECTION
1
3
38
21
33
4
9
40
15
14
32
18
2
19
10
42
34
20
27
5
41
25
8
16
23
36
6
29
11
7
17
12
35
30
39
31
13
22
28
26
24
37
-1
EOF
